
Gurobi 10.0.3 (linux64, gurobi_cl) logging started Thu Nov  2 11:40:34 2023

Set parameter Username
Set parameter TimeLimit to value 3600
Set parameter LogFile to value "RCPSP_855.log"
Set parameter Threads to value 32
Academic license - for non-commercial use only - expires 2024-10-30
Using license file /home/jrivera6/gurobi-licenses/v1003/compute-0-34/gurobi.lic

Gurobi Optimizer version 10.0.3 build v10.0.3rc0 (linux64)
Copyright (c) 2023, Gurobi Optimization, LLC

Read MPS format model from file RCPSP_855.mps
Reading time = 0.03 seconds
RCPSP_855: 19662 rows, 7750 columns, 64677 nonzeros

CPU model: Intel(R) Xeon(R) Gold 6130 CPU @ 2.10GHz, instruction set [SSE2|AVX|AVX2|AVX512]
Thread count: 32 physical cores, 32 logical processors, using up to 32 threads

Optimize a model with 19662 rows, 7750 columns and 64677 nonzeros
Model fingerprint: 0x8d619daa
Variable types: 62 continuous, 7688 integer (7688 binary)
Coefficient statistics:
  Matrix range     [1e+00, 3e+02]
  Objective range  [1e+00, 1e+00]
  Bounds range     [1e+00, 1e+00]
  RHS range        [1e+00, 3e+02]
Presolve removed 4028 rows and 905 columns (presolve time = 5s) ...
Presolve removed 9788 rows and 3792 columns
Presolve time: 5.28s
Presolved: 9874 rows, 3958 columns, 33087 nonzeros
Variable types: 61 continuous, 3897 integer (3897 binary)

Root simplex log...

Iteration    Objective       Primal Inf.    Dual Inf.      Time
       0    1.0300000e+02   1.562000e+04   0.000000e+00      5s
    1234    1.0300000e+02   0.000000e+00   0.000000e+00      5s

Root relaxation: objective 1.030000e+02, 1234 iterations, 0.02 seconds (0.01 work units)

    Nodes    |    Current Node    |     Objective Bounds      |     Work
 Expl Unexpl |  Obj  Depth IntInf | Incumbent    BestBd   Gap | It/Node Time

H    0     0                     103.0000000  103.00000  0.00%     -    5s
     0     0  103.00000    0    2  103.00000  103.00000  0.00%     -    5s

Explored 1 nodes (2807 simplex iterations) in 5.56 seconds (3.31 work units)
Thread count was 32 (of 32 available processors)

Solution count 1: 103 

Optimal solution found (tolerance 1.00e-04)
Best objective 1.030000000000e+02, best bound 1.030000000000e+02, gap 0.0000%

Wrote result file 'RCPSP_855.sol'

